500
1000
209
208
208
208
208
207
207
206
206
206
206
206
205
205
205
204
203
202
202
201
201
200
200
200
199
199
199
198
197
197
197
196
196
196
196
196
195
195
194
194
193
192
192
192
191
191
191
191
191
190
190
189
189
188
187
187
187
187
187
186
186
186
186
186
185
185
184
183
183
183
183
182
182
182
182
182
181
180
180
180
180
179
179
179
178
178
178
178
178
177
177
177
176
176
175
175
175
174
173
173
173
170
170
170
169
169
169
169
169
169
169
168
168
168
168
167
166
165
164
164
164
163
163
163
161
161
161
161
160
160
159
158
158
158
158
157
157
157
156
156
156
156
154
154
153
153
153
152
152
151
151
150
150
150
149
149
149
148
148
148
147
146
146
145
145
144
144
143
143
143
143
142
142
141
141
141
140
139
137
137
137
137
136
135
135
134
134
134
134
133
133
133
132
132
132
131
131
131
131
131
130
130
130
129
129
129
128
128
127
127
126
126
126
125
124
124
124
124
122
122
121
121
121
121
120
119
119
119
119
119
118
118
118
117
117
117
117
116
116
116
116
116
115
115
115
114
114
114
114
113
113
112
112
111
111
111
110
110
110
108
108
107
107
107
106
105
105
104
104
104
104
103
103
103
101
101
101
100
100
99
99
99
99
97
97
96
96
96
95
95
95
95
94
93
92
92
92
91
91
91
91
91
91
90
90
89
89
88
88
87
87
87
87
87
86
86
84
83
83
81
81
81
80
80
80
79
79
78
78
77
76
76
76
75
73
73
72
72
71
71
70
70
69
69
69
67
66
66
65
65
65
64
64
64
64
64
64
64
64
64
63
63
63
63
63
62
62
62
62
62
62
61
60
60
59
59
59
59
59
59
58
58
58
58
57
57
57
57
57
56
56
56
56
56
55
55
55
55
54
54
53
53
53
53
51
51
51
50
49
48
47
47
47
46
46
45
45
44
44
44
44
44
44
43
43
43
43
43
42
42
42
42
39
39
38
37
36
36
36
35
35
35
34
34
34
34
33
33
33
32
32
32
31
31
31
31
31
30
30
30
30
30
29
29
29
29
28
27
26
26
26
25
24
23
23
23
22
22
22
21
20
19
19
18
18
17
17
17
17
16
15
15
15
15
14
14
14
14
13
13
